c nIsolatedPIs 64
c maxPI 192
p cnf 661 1408
c gate 193 60 156 0
60 -193 0
156 -193 0
-60 -156 193 0
c gate 194 -60 -156 0
-60 -194 0
-156 -194 0
60 156 194 0
c gate 195 59 155 0
59 -195 0
155 -195 0
-59 -155 195 0
c gate 196 -194 195 0
-194 -196 0
195 -196 0
194 -195 196 0
c gate 197 -193 -196 0
-193 -197 0
-196 -197 0
193 196 197 0
c gate 198 58 154 0
58 -198 0
154 -198 0
-58 -154 198 0
c gate 199 57 153 0
57 -199 0
153 -199 0
-57 -153 199 0
c gate 200 -198 -199 0
-198 -200 0
-199 -200 0
198 199 200 0
c gate 201 -58 -154 0
-58 -201 0
-154 -201 0
58 154 201 0
c gate 202 -59 -155 0
-59 -202 0
-155 -202 0
59 155 202 0
c gate 203 -194 -202 0
-194 -203 0
-202 -203 0
194 202 203 0
c gate 204 -201 203 0
-201 -204 0
203 -204 0
201 -203 204 0
c gate 205 197 204 0
197 -205 0
204 -205 0
-197 -204 205 0
c gate 206 -200 205 0
-200 -206 0
205 -206 0
200 -205 206 0
c gate 207 197 -206 0
197 -207 0
-206 -207 0
-197 206 207 0
c gate 208 -62 -158 0
-62 -208 0
-158 -208 0
62 158 208 0
c gate 209 -63 -159 0
-63 -209 0
-159 -209 0
63 159 209 0
c gate 210 -208 -209 0
-208 -210 0
-209 -210 0
208 209 210 0
c gate 211 63 159 0
63 -211 0
159 -211 0
-63 -159 211 0
c gate 212 64 160 0
64 -212 0
160 -212 0
-64 -160 212 0
c gate 213 -211 -212 0
-211 -213 0
-212 -213 0
211 212 213 0
c gate 214 -64 -160 0
-64 -214 0
-160 -214 0
64 160 214 0
c gate 215 213 -214 0
213 -215 0
-214 -215 0
-213 214 215 0
c gate 216 210 215 0
210 -216 0
215 -216 0
-210 -215 216 0
c gate 217 61 157 0
61 -217 0
157 -217 0
-61 -157 217 0
c gate 218 62 158 0
62 -218 0
158 -218 0
-62 -158 218 0
c gate 219 -217 -218 0
-217 -219 0
-218 -219 0
217 218 219 0
c gate 220 -61 -157 0
-61 -220 0
-157 -220 0
61 157 220 0
c gate 221 219 -220 0
219 -221 0
-220 -221 0
-219 220 221 0
c gate 222 216 221 0
216 -222 0
221 -222 0
-216 -221 222 0
c gate 223 -207 222 0
-207 -223 0
222 -223 0
207 -222 223 0
c gate 224 210 -219 0
210 -224 0
-219 -224 0
-210 219 224 0
c gate 225 213 -224 0
213 -225 0
-224 -225 0
-213 224 225 0
c gate 226 -214 -225 0
-214 -226 0
-225 -226 0
214 225 226 0
c gate 227 -223 -226 0
-223 -227 0
-226 -227 0
223 226 227 0
c gate 228 -56 -152 0
-56 -228 0
-152 -228 0
56 152 228 0
c gate 229 56 152 0
56 -229 0
152 -229 0
-56 -152 229 0
c gate 230 55 151 0
55 -230 0
151 -230 0
-55 -151 230 0
c gate 231 -229 -230 0
-229 -231 0
-230 -231 0
229 230 231 0
c gate 232 -55 -151 0
-55 -232 0
-151 -232 0
55 151 232 0
c gate 233 -54 -150 0
-54 -233 0
-150 -233 0
54 150 233 0
c gate 234 -232 -233 0
-232 -234 0
-233 -234 0
232 233 234 0
c gate 235 54 150 0
54 -235 0
150 -235 0
-54 -150 235 0
c gate 236 53 149 0
53 -236 0
149 -236 0
-53 -149 236 0
c gate 237 -235 -236 0
-235 -237 0
-236 -237 0
235 236 237 0
c gate 238 -53 -149 0
-53 -238 0
-149 -238 0
53 149 238 0
c gate 239 49 145 0
49 -239 0
145 -239 0
-49 -145 239 0
c gate 240 50 146 0
50 -240 0
146 -240 0
-50 -146 240 0
c gate 241 -239 -240 0
-239 -241 0
-240 -241 0
239 240 241 0
c gate 242 -51 -147 0
-51 -242 0
-147 -242 0
51 147 242 0
c gate 243 -50 -146 0
-50 -243 0
-146 -243 0
50 146 243 0
c gate 244 -52 -148 0
-52 -244 0
-148 -244 0
52 148 244 0
c gate 245 -243 -244 0
-243 -245 0
-244 -245 0
243 244 245 0
c gate 246 -242 245 0
-242 -246 0
245 -246 0
242 -245 246 0
c gate 247 -241 246 0
-241 -247 0
246 -247 0
241 -246 247 0
c gate 248 52 148 0
52 -248 0
148 -248 0
-52 -148 248 0
c gate 249 51 147 0
51 -249 0
147 -249 0
-51 -147 249 0
c gate 250 -244 249 0
-244 -250 0
249 -250 0
244 -249 250 0
c gate 251 -248 -250 0
-248 -251 0
-250 -251 0
248 250 251 0
c gate 252 -247 251 0
-247 -252 0
251 -252 0
247 -251 252 0
c gate 253 -238 -252 0
-238 -253 0
-252 -253 0
238 252 253 0
c gate 254 237 -253 0
237 -254 0
-253 -254 0
-237 253 254 0
c gate 255 234 -254 0
234 -255 0
-254 -255 0
-234 254 255 0
c gate 256 231 -255 0
231 -256 0
-255 -256 0
-231 255 256 0
c gate 257 -228 -256 0
-228 -257 0
-256 -257 0
228 256 257 0
c gate 258 231 234 0
231 -258 0
234 -258 0
-231 -234 258 0
c gate 259 237 241 0
237 -259 0
241 -259 0
-237 -241 259 0
c gate 260 258 259 0
258 -260 0
259 -260 0
-258 -259 260 0
c gate 261 -49 -145 0
-49 -261 0
-145 -261 0
49 145 261 0
c gate 262 -228 -238 0
-228 -262 0
-238 -262 0
228 238 262 0
c gate 263 -261 262 0
-261 -263 0
262 -263 0
261 -262 263 0
c gate 264 246 263 0
246 -264 0
263 -264 0
-246 -263 264 0
c gate 265 251 264 0
251 -265 0
264 -265 0
-251 -264 265 0
c gate 266 260 265 0
260 -266 0
265 -266 0
-260 -265 266 0
c gate 267 44 140 0
44 -267 0
140 -267 0
-44 -140 267 0
c gate 268 -44 -140 0
-44 -268 0
-140 -268 0
44 140 268 0
c gate 269 43 139 0
43 -269 0
139 -269 0
-43 -139 269 0
c gate 270 -268 269 0
-268 -270 0
269 -270 0
268 -269 270 0
c gate 271 -267 -270 0
-267 -271 0
-270 -271 0
267 270 271 0
c gate 272 -42 -138 0
-42 -272 0
-138 -272 0
42 138 272 0
c gate 273 -43 -139 0
-43 -273 0
-139 -273 0
43 139 273 0
c gate 274 -268 -273 0
-268 -274 0
-273 -274 0
268 273 274 0
c gate 275 -272 274 0
-272 -275 0
274 -275 0
272 -274 275 0
c gate 276 271 275 0
271 -276 0
275 -276 0
-271 -275 276 0
c gate 277 42 138 0
42 -277 0
138 -277 0
-42 -138 277 0
c gate 278 41 137 0
41 -278 0
137 -278 0
-41 -137 278 0
c gate 279 -277 -278 0
-277 -279 0
-278 -279 0
277 278 279 0
c gate 280 -41 -137 0
-41 -280 0
-137 -280 0
41 137 280 0
c gate 281 279 -280 0
279 -281 0
-280 -281 0
-279 280 281 0
c gate 282 276 281 0
276 -282 0
281 -282 0
-276 -281 282 0
c gate 283 -46 -142 0
-46 -283 0
-142 -283 0
46 142 283 0
c gate 284 -47 -143 0
-47 -284 0
-143 -284 0
47 143 284 0
c gate 285 -283 -284 0
-283 -285 0
-284 -285 0
283 284 285 0
c gate 286 47 143 0
47 -286 0
143 -286 0
-47 -143 286 0
c gate 287 48 144 0
48 -287 0
144 -287 0
-48 -144 287 0
c gate 288 -286 -287 0
-286 -288 0
-287 -288 0
286 287 288 0
c gate 289 -48 -144 0
-48 -289 0
-144 -289 0
48 144 289 0
c gate 290 288 -289 0
288 -290 0
-289 -290 0
-288 289 290 0
c gate 291 285 290 0
285 -291 0
290 -291 0
-285 -290 291 0
c gate 292 45 141 0
45 -292 0
141 -292 0
-45 -141 292 0
c gate 293 46 142 0
46 -293 0
142 -293 0
-46 -142 293 0
c gate 294 -292 -293 0
-292 -294 0
-293 -294 0
292 293 294 0
c gate 295 -45 -141 0
-45 -295 0
-141 -295 0
45 141 295 0
c gate 296 294 -295 0
294 -296 0
-295 -296 0
-294 295 296 0
c gate 297 291 296 0
291 -297 0
296 -297 0
-291 -296 297 0
c gate 298 282 297 0
282 -298 0
297 -298 0
-282 -297 298 0
c gate 299 40 136 0
40 -299 0
136 -299 0
-40 -136 299 0
c gate 300 -40 -136 0
-40 -300 0
-136 -300 0
40 136 300 0
c gate 301 39 135 0
39 -301 0
135 -301 0
-39 -135 301 0
c gate 302 -300 301 0
-300 -302 0
301 -302 0
300 -301 302 0
c gate 303 -299 -302 0
-299 -303 0
-302 -303 0
299 302 303 0
c gate 304 38 134 0
38 -304 0
134 -304 0
-38 -134 304 0
c gate 305 37 133 0
37 -305 0
133 -305 0
-37 -133 305 0
c gate 306 -304 -305 0
-304 -306 0
-305 -306 0
304 305 306 0
c gate 307 -38 -134 0
-38 -307 0
-134 -307 0
38 134 307 0
c gate 308 -39 -135 0
-39 -308 0
-135 -308 0
39 135 308 0
c gate 309 -300 -308 0
-300 -309 0
-308 -309 0
300 308 309 0
c gate 310 -307 309 0
-307 -310 0
309 -310 0
307 -309 310 0
c gate 311 303 310 0
303 -311 0
310 -311 0
-303 -310 311 0
c gate 312 -306 311 0
-306 -312 0
311 -312 0
306 -311 312 0
c gate 313 303 -312 0
303 -313 0
-312 -313 0
-303 312 313 0
c gate 314 -37 -133 0
-37 -314 0
-133 -314 0
37 133 314 0
c gate 315 306 -314 0
306 -315 0
-314 -315 0
-306 314 315 0
c gate 316 311 315 0
311 -316 0
315 -316 0
-311 -315 316 0
c gate 317 36 132 0
36 -317 0
132 -317 0
-36 -132 317 0
c gate 318 -36 -132 0
-36 -318 0
-132 -318 0
36 132 318 0
c gate 319 35 131 0
35 -319 0
131 -319 0
-35 -131 319 0
c gate 320 -318 319 0
-318 -320 0
319 -320 0
318 -319 320 0
c gate 321 -317 -320 0
-317 -321 0
-320 -321 0
317 320 321 0
c gate 322 -35 -131 0
-35 -322 0
-131 -322 0
35 131 322 0
c gate 323 -318 -322 0
-318 -323 0
-322 -323 0
318 322 323 0
c gate 324 321 323 0
321 -324 0
323 -324 0
-321 -323 324 0
c gate 325 33 129 0
33 -325 0
129 -325 0
-33 -129 325 0
c gate 326 34 130 0
34 -326 0
130 -326 0
-34 -130 326 0
c gate 327 -325 -326 0
-325 -327 0
-326 -327 0
325 326 327 0
c gate 328 -34 -130 0
-34 -328 0
-130 -328 0
34 130 328 0
c gate 329 -327 -328 0
-327 -329 0
-328 -329 0
327 328 329 0
c gate 330 324 329 0
324 -330 0
329 -330 0
-324 -329 330 0
c gate 331 321 -330 0
321 -331 0
-330 -331 0
-321 330 331 0
c gate 332 316 -331 0
316 -332 0
-331 -332 0
-316 331 332 0
c gate 333 313 -332 0
313 -333 0
-332 -333 0
-313 332 333 0
c gate 334 -33 -129 0
-33 -334 0
-129 -334 0
33 129 334 0
c gate 335 -328 -334 0
-328 -335 0
-334 -335 0
328 334 335 0
c gate 336 327 335 0
327 -336 0
335 -336 0
-327 -335 336 0
c gate 337 324 336 0
324 -337 0
336 -337 0
-324 -336 337 0
c gate 338 316 337 0
316 -338 0
337 -338 0
-316 -337 338 0
c gate 339 -24 -120 0
-24 -339 0
-120 -339 0
24 120 339 0
c gate 340 23 119 0
23 -340 0
119 -340 0
-23 -119 340 0
c gate 341 24 120 0
24 -341 0
120 -341 0
-24 -120 341 0
c gate 342 -340 -341 0
-340 -342 0
-341 -342 0
340 341 342 0
c gate 343 -22 -118 0
-22 -343 0
-118 -343 0
22 118 343 0
c gate 344 -23 -119 0
-23 -344 0
-119 -344 0
23 119 344 0
c gate 345 -343 -344 0
-343 -345 0
-344 -345 0
343 344 345 0
c gate 346 22 118 0
22 -346 0
118 -346 0
-22 -118 346 0
c gate 347 21 117 0
21 -347 0
117 -347 0
-21 -117 347 0
c gate 348 -346 -347 0
-346 -348 0
-347 -348 0
346 347 348 0
c gate 349 -21 -117 0
-21 -349 0
-117 -349 0
21 117 349 0
c gate 350 20 116 0
20 -350 0
116 -350 0
-20 -116 350 0
c gate 351 -20 -116 0
-20 -351 0
-116 -351 0
20 116 351 0
c gate 352 19 -351 0
19 -352 0
-351 -352 0
-19 351 352 0
c gate 353 115 352 0
115 -353 0
352 -353 0
-115 -352 353 0
c gate 354 -350 -353 0
-350 -354 0
-353 -354 0
350 353 354 0
c gate 355 115 -351 0
115 -355 0
-351 -355 0
-115 351 355 0
c gate 356 -352 -355 0
-352 -356 0
-355 -356 0
352 355 356 0
c gate 357 18 114 0
18 -357 0
114 -357 0
-18 -114 357 0
c gate 358 17 113 0
17 -358 0
113 -358 0
-17 -113 358 0
c gate 359 -357 -358 0
-357 -359 0
-358 -359 0
357 358 359 0
c gate 360 -18 -114 0
-18 -360 0
-114 -360 0
18 114 360 0
c gate 361 -359 -360 0
-359 -361 0
-360 -361 0
359 360 361 0
c gate 362 -356 361 0
-356 -362 0
361 -362 0
356 -361 362 0
c gate 363 354 -362 0
354 -363 0
-362 -363 0
-354 362 363 0
c gate 364 -349 -363 0
-349 -364 0
-363 -364 0
349 363 364 0
c gate 365 348 -364 0
348 -365 0
-364 -365 0
-348 364 365 0
c gate 366 345 -365 0
345 -366 0
-365 -366 0
-345 365 366 0
c gate 367 342 -366 0
342 -367 0
-366 -367 0
-342 366 367 0
c gate 368 -339 -367 0
-339 -368 0
-367 -368 0
339 367 368 0
c gate 369 2 98 0
2 -369 0
98 -369 0
-2 -98 369 0
c gate 370 1 97 0
1 -370 0
97 -370 0
-1 -97 370 0
c gate 371 -369 -370 0
-369 -371 0
-370 -371 0
369 370 371 0
c gate 372 -3 -99 0
-3 -372 0
-99 -372 0
3 99 372 0
c gate 373 -2 -98 0
-2 -373 0
-98 -373 0
2 98 373 0
c gate 374 -372 -373 0
-372 -374 0
-373 -374 0
372 373 374 0
c gate 375 -371 374 0
-371 -375 0
374 -375 0
371 -374 375 0
c gate 376 4 100 0
4 -376 0
100 -376 0
-4 -100 376 0
c gate 377 3 99 0
3 -377 0
99 -377 0
-3 -99 377 0
c gate 378 -376 -377 0
-376 -378 0
-377 -378 0
376 377 378 0
c gate 379 -375 378 0
-375 -379 0
378 -379 0
375 -378 379 0
c gate 380 -4 -100 0
-4 -380 0
-100 -380 0
4 100 380 0
c gate 381 -5 -101 0
-5 -381 0
-101 -381 0
5 101 381 0
c gate 382 -380 -381 0
-380 -382 0
-381 -382 0
380 381 382 0
c gate 383 -379 382 0
-379 -383 0
382 -383 0
379 -382 383 0
c gate 384 6 102 0
6 -384 0
102 -384 0
-6 -102 384 0
c gate 385 5 101 0
5 -385 0
101 -385 0
-5 -101 385 0
c gate 386 -384 -385 0
-384 -386 0
-385 -386 0
384 385 386 0
c gate 387 -383 386 0
-383 -387 0
386 -387 0
383 -386 387 0
c gate 388 -7 -103 0
-7 -388 0
-103 -388 0
7 103 388 0
c gate 389 -6 -102 0
-6 -389 0
-102 -389 0
6 102 389 0
c gate 390 -388 -389 0
-388 -390 0
-389 -390 0
388 389 390 0
c gate 391 -387 390 0
-387 -391 0
390 -391 0
387 -390 391 0
c gate 392 8 104 0
8 -392 0
104 -392 0
-8 -104 392 0
c gate 393 7 103 0
7 -393 0
103 -393 0
-7 -103 393 0
c gate 394 -392 -393 0
-392 -394 0
-393 -394 0
392 393 394 0
c gate 395 -391 394 0
-391 -395 0
394 -395 0
391 -394 395 0
c gate 396 -9 -105 0
-9 -396 0
-105 -396 0
9 105 396 0
c gate 397 -8 -104 0
-8 -397 0
-104 -397 0
8 104 397 0
c gate 398 -396 -397 0
-396 -398 0
-397 -398 0
396 397 398 0
c gate 399 -395 398 0
-395 -399 0
398 -399 0
395 -398 399 0
c gate 400 10 106 0
10 -400 0
106 -400 0
-10 -106 400 0
c gate 401 9 105 0
9 -401 0
105 -401 0
-9 -105 401 0
c gate 402 -400 -401 0
-400 -402 0
-401 -402 0
400 401 402 0
c gate 403 -399 402 0
-399 -403 0
402 -403 0
399 -402 403 0
c gate 404 -10 -106 0
-10 -404 0
-106 -404 0
10 106 404 0
c gate 405 -12 -108 0
-12 -405 0
-108 -405 0
12 108 405 0
c gate 406 -11 -107 0
-11 -406 0
-107 -406 0
11 107 406 0
c gate 407 -405 -406 0
-405 -407 0
-406 -407 0
405 406 407 0
c gate 408 -404 407 0
-404 -408 0
407 -408 0
404 -407 408 0
c gate 409 -403 408 0
-403 -409 0
408 -409 0
403 -408 409 0
c gate 410 12 108 0
12 -410 0
108 -410 0
-12 -108 410 0
c gate 411 11 107 0
11 -411 0
107 -411 0
-11 -107 411 0
c gate 412 -405 411 0
-405 -412 0
411 -412 0
405 -411 412 0
c gate 413 -410 -412 0
-410 -413 0
-412 -413 0
410 412 413 0
c gate 414 -409 413 0
-409 -414 0
413 -414 0
409 -413 414 0
c gate 415 -14 -110 0
-14 -415 0
-110 -415 0
14 110 415 0
c gate 416 -15 -111 0
-15 -416 0
-111 -416 0
15 111 416 0
c gate 417 -415 -416 0
-415 -417 0
-416 -417 0
415 416 417 0
c gate 418 14 110 0
14 -418 0
110 -418 0
-14 -110 418 0
c gate 419 13 109 0
13 -419 0
109 -419 0
-13 -109 419 0
c gate 420 -418 -419 0
-418 -420 0
-419 -420 0
418 419 420 0
c gate 421 -13 -109 0
-13 -421 0
-109 -421 0
13 109 421 0
c gate 422 420 -421 0
420 -422 0
-421 -422 0
-420 421 422 0
c gate 423 417 422 0
417 -423 0
422 -423 0
-417 -422 423 0
c gate 424 -414 423 0
-414 -424 0
423 -424 0
414 -423 424 0
c gate 425 417 -420 0
417 -425 0
-420 -425 0
-417 420 425 0
c gate 426 15 111 0
15 -426 0
111 -426 0
-15 -111 426 0
c gate 427 16 112 0
16 -427 0
112 -427 0
-16 -112 427 0
c gate 428 -426 -427 0
-426 -428 0
-427 -428 0
426 427 428 0
c gate 429 -425 428 0
-425 -429 0
428 -429 0
425 -428 429 0
c gate 430 -424 429 0
-424 -430 0
429 -430 0
424 -429 430 0
c gate 431 -17 -113 0
-17 -431 0
-113 -431 0
17 113 431 0
c gate 432 -16 -112 0
-16 -432 0
-112 -432 0
16 112 432 0
c gate 433 -360 -432 0
-360 -433 0
-432 -433 0
360 432 433 0
c gate 434 -431 433 0
-431 -434 0
433 -434 0
431 -433 434 0
c gate 435 -339 -349 0
-339 -435 0
-349 -435 0
339 349 435 0
c gate 436 342 435 0
342 -436 0
435 -436 0
-342 -435 436 0
c gate 437 434 436 0
434 -437 0
436 -437 0
-434 -436 437 0
c gate 438 -356 437 0
-356 -438 0
437 -438 0
356 -437 438 0
c gate 439 345 348 0
345 -439 0
348 -439 0
-345 -348 439 0
c gate 440 359 439 0
359 -440 0
439 -440 0
-359 -439 440 0
c gate 441 354 440 0
354 -441 0
440 -441 0
-354 -440 441 0
c gate 442 438 441 0
438 -442 0
441 -442 0
-438 -441 442 0
c gate 443 -430 442 0
-430 -443 0
442 -443 0
430 -442 443 0
c gate 444 -368 -443 0
-368 -444 0
-443 -444 0
368 443 444 0
c gate 445 -30 -126 0
-30 -445 0
-126 -445 0
30 126 445 0
c gate 446 -31 -127 0
-31 -446 0
-127 -446 0
31 127 446 0
c gate 447 -445 -446 0
-445 -447 0
-446 -447 0
445 446 447 0
c gate 448 30 126 0
30 -448 0
126 -448 0
-30 -126 448 0
c gate 449 29 125 0
29 -449 0
125 -449 0
-29 -125 449 0
c gate 450 -448 -449 0
-448 -450 0
-449 -450 0
448 449 450 0
c gate 451 447 -450 0
447 -451 0
-450 -451 0
-447 450 451 0
c gate 452 32 128 0
32 -452 0
128 -452 0
-32 -128 452 0
c gate 453 31 127 0
31 -453 0
127 -453 0
-31 -127 453 0
c gate 454 -452 -453 0
-452 -454 0
-453 -454 0
452 453 454 0
c gate 455 -451 454 0
-451 -455 0
454 -455 0
451 -454 455 0
c gate 456 28 124 0
28 -456 0
124 -456 0
-28 -124 456 0
c gate 457 -28 -124 0
-28 -457 0
-124 -457 0
28 124 457 0
c gate 458 27 123 0
27 -458 0
123 -458 0
-27 -123 458 0
c gate 459 -457 458 0
-457 -459 0
458 -459 0
457 -458 459 0
c gate 460 -456 -459 0
-456 -460 0
-459 -460 0
456 459 460 0
c gate 461 -26 -122 0
-26 -461 0
-122 -461 0
26 122 461 0
c gate 462 -27 -123 0
-27 -462 0
-123 -462 0
27 123 462 0
c gate 463 -457 -462 0
-457 -463 0
-462 -463 0
457 462 463 0
c gate 464 -461 463 0
-461 -464 0
463 -464 0
461 -463 464 0
c gate 465 460 464 0
460 -465 0
464 -465 0
-460 -464 465 0
c gate 466 -29 -125 0
-29 -466 0
-125 -466 0
29 125 466 0
c gate 467 447 -466 0
447 -467 0
-466 -467 0
-447 466 467 0
c gate 468 26 122 0
26 -468 0
122 -468 0
-26 -122 468 0
c gate 469 25 121 0
25 -469 0
121 -469 0
-25 -121 469 0
c gate 470 -468 -469 0
-468 -470 0
-469 -470 0
468 469 470 0
c gate 471 -25 -121 0
-25 -471 0
-121 -471 0
25 121 471 0
c gate 472 -32 -128 0
-32 -472 0
-128 -472 0
32 128 472 0
c gate 473 -471 -472 0
-471 -473 0
-472 -473 0
471 472 473 0
c gate 474 470 473 0
470 -474 0
473 -474 0
-470 -473 474 0
c gate 475 467 474 0
467 -475 0
474 -475 0
-467 -474 475 0
c gate 476 465 475 0
465 -476 0
475 -476 0
-465 -475 476 0
c gate 477 455 476 0
455 -477 0
476 -477 0
-455 -476 477 0
c gate 478 -444 477 0
-444 -478 0
477 -478 0
444 -477 478 0
c gate 479 465 -470 0
465 -479 0
-470 -479 0
-465 470 479 0
c gate 480 460 -479 0
460 -480 0
-479 -480 0
-460 479 480 0
c gate 481 467 -480 0
467 -481 0
-480 -481 0
-467 480 481 0
c gate 482 455 -481 0
455 -482 0
-481 -482 0
-455 481 482 0
c gate 483 -472 -482 0
-472 -483 0
-482 -483 0
472 482 483 0
c gate 484 -478 -483 0
-478 -484 0
-483 -484 0
478 483 484 0
c gate 485 338 -484 0
338 -485 0
-484 -485 0
-338 484 485 0
c gate 486 333 -485 0
333 -486 0
-485 -486 0
-333 485 486 0
c gate 487 298 -486 0
298 -487 0
-486 -487 0
-298 486 487 0
c gate 488 276 -279 0
276 -488 0
-279 -488 0
-276 279 488 0
c gate 489 271 -488 0
271 -489 0
-488 -489 0
-271 488 489 0
c gate 490 297 -489 0
297 -490 0
-489 -490 0
-297 489 490 0
c gate 491 285 -294 0
285 -491 0
-294 -491 0
-285 294 491 0
c gate 492 288 -491 0
288 -492 0
-491 -492 0
-288 491 492 0
c gate 493 -289 -492 0
-289 -493 0
-492 -493 0
289 492 493 0
c gate 494 -490 -493 0
-490 -494 0
-493 -494 0
490 493 494 0
c gate 495 -487 494 0
-487 -495 0
494 -495 0
487 -494 495 0
c gate 496 266 -495 0
266 -496 0
-495 -496 0
-266 495 496 0
c gate 497 -257 -496 0
-257 -497 0
-496 -497 0
257 496 497 0
c gate 498 -57 -153 0
-57 -498 0
-153 -498 0
57 153 498 0
c gate 499 200 -498 0
200 -499 0
-498 -499 0
-200 498 499 0
c gate 500 205 499 0
205 -500 0
499 -500 0
-205 -499 500 0
c gate 501 222 500 0
222 -501 0
500 -501 0
-222 -500 501 0
c gate 502 -497 501 0
-497 -502 0
501 -502 0
497 -501 502 0
c gate 503 227 -502 0
227 -503 0
-502 -503 0
-227 502 503 0
c gate 504 -67 -163 0
-67 -504 0
-163 -504 0
67 163 504 0
c gate 505 -66 -162 0
-66 -505 0
-162 -505 0
66 162 505 0
c gate 506 -504 -505 0
-504 -506 0
-505 -506 0
504 505 506 0
c gate 507 66 162 0
66 -507 0
162 -507 0
-66 -162 507 0
c gate 508 65 161 0
65 -508 0
161 -508 0
-65 -161 508 0
c gate 509 -507 -508 0
-507 -509 0
-508 -509 0
507 508 509 0
c gate 510 506 -509 0
506 -510 0
-509 -510 0
-506 509 510 0
c gate 511 68 164 0
68 -511 0
164 -511 0
-68 -164 511 0
c gate 512 67 163 0
67 -512 0
163 -512 0
-67 -163 512 0
c gate 513 -511 -512 0
-511 -513 0
-512 -513 0
511 512 513 0
c gate 514 -510 513 0
-510 -514 0
513 -514 0
510 -513 514 0
c gate 515 -69 -165 0
-69 -515 0
-165 -515 0
69 165 515 0
c gate 516 -68 -164 0
-68 -516 0
-164 -516 0
68 164 516 0
c gate 517 -515 -516 0
-515 -517 0
-516 -517 0
515 516 517 0
c gate 518 -65 -161 0
-65 -518 0
-161 -518 0
65 161 518 0
c gate 519 506 -518 0
506 -519 0
-518 -519 0
-506 518 519 0
c gate 520 517 519 0
517 -520 0
519 -520 0
-517 -519 520 0
c gate 521 514 520 0
514 -521 0
520 -521 0
-514 -520 521 0
c gate 522 71 167 0
71 -522 0
167 -522 0
-71 -167 522 0
c gate 523 -71 -167 0
-71 -523 0
-167 -523 0
71 167 523 0
c gate 524 -70 -166 0
-70 -524 0
-166 -524 0
70 166 524 0
c gate 525 -523 -524 0
-523 -525 0
-524 -525 0
523 524 525 0
c gate 526 -522 525 0
-522 -526 0
525 -526 0
522 -525 526 0
c gate 527 69 165 0
69 -527 0
165 -527 0
-69 -165 527 0
c gate 528 70 166 0
70 -528 0
166 -528 0
-70 -166 528 0
c gate 529 -527 -528 0
-527 -529 0
-528 -529 0
527 528 529 0
c gate 530 72 168 0
72 -530 0
168 -530 0
-72 -168 530 0
c gate 531 -72 -168 0
-72 -531 0
-168 -531 0
72 168 531 0
c gate 532 -530 -531 0
-530 -532 0
-531 -532 0
530 531 532 0
c gate 533 529 532 0
529 -533 0
532 -533 0
-529 -532 533 0
c gate 534 526 533 0
526 -534 0
533 -534 0
-526 -533 534 0
c gate 535 521 534 0
521 -535 0
534 -535 0
-521 -534 535 0
c gate 536 -503 535 0
-503 -536 0
535 -536 0
503 -535 536 0
c gate 537 84 180 0
84 -537 0
180 -537 0
-84 -180 537 0
c gate 538 -84 -180 0
-84 -538 0
-180 -538 0
84 180 538 0
c gate 539 83 -538 0
83 -539 0
-538 -539 0
-83 538 539 0
c gate 540 179 539 0
179 -540 0
539 -540 0
-179 -539 540 0
c gate 541 -537 -540 0
-537 -541 0
-540 -541 0
537 540 541 0
c gate 542 81 177 0
81 -542 0
177 -542 0
-81 -177 542 0
c gate 543 82 178 0
82 -543 0
178 -543 0
-82 -178 543 0
c gate 544 -542 -543 0
-542 -544 0
-543 -544 0
542 543 544 0
c gate 545 88 184 0
88 -545 0
184 -545 0
-88 -184 545 0
c gate 546 87 183 0
87 -546 0
183 -546 0
-87 -183 546 0
c gate 547 -545 -546 0
-545 -547 0
-546 -547 0
545 546 547 0
c gate 548 544 547 0
544 -548 0
547 -548 0
-544 -547 548 0
c gate 549 -87 -183 0
-87 -549 0
-183 -549 0
87 183 549 0
c gate 550 -86 -182 0
-86 -550 0
-182 -550 0
86 182 550 0
c gate 551 -549 -550 0
-549 -551 0
-550 -551 0
549 550 551 0
c gate 552 86 182 0
86 -552 0
182 -552 0
-86 -182 552 0
c gate 553 85 181 0
85 -553 0
181 -553 0
-85 -181 553 0
c gate 554 -552 -553 0
-552 -554 0
-553 -554 0
552 553 554 0
c gate 555 551 554 0
551 -555 0
554 -555 0
-551 -554 555 0
c gate 556 548 555 0
548 -556 0
555 -556 0
-548 -555 556 0
c gate 557 179 -538 0
179 -557 0
-538 -557 0
-179 538 557 0
c gate 558 -539 -557 0
-539 -558 0
-557 -558 0
539 557 558 0
c gate 559 -85 -181 0
-85 -559 0
-181 -559 0
85 181 559 0
c gate 560 -82 -178 0
-82 -560 0
-178 -560 0
82 178 560 0
c gate 561 -559 -560 0
-559 -561 0
-560 -561 0
559 560 561 0
c gate 562 -88 -184 0
-88 -562 0
-184 -562 0
88 184 562 0
c gate 563 -81 -177 0
-81 -563 0
-177 -563 0
81 177 563 0
c gate 564 -562 -563 0
-562 -564 0
-563 -564 0
562 563 564 0
c gate 565 561 564 0
561 -565 0
564 -565 0
-561 -564 565 0
c gate 566 -558 565 0
-558 -566 0
565 -566 0
558 -565 566 0
c gate 567 556 566 0
556 -567 0
566 -567 0
-556 -566 567 0
c gate 568 541 567 0
541 -568 0
567 -568 0
-541 -567 568 0
c gate 569 -93 -189 0
-93 -569 0
-189 -569 0
93 189 569 0
c gate 570 -92 -188 0
-92 -570 0
-188 -570 0
92 188 570 0
c gate 571 -569 -570 0
-569 -571 0
-570 -571 0
569 570 571 0
c gate 572 -91 -187 0
-91 -572 0
-187 -572 0
91 187 572 0
c gate 573 95 191 0
95 -573 0
191 -573 0
-95 -191 573 0
c gate 574 -572 -573 0
-572 -574 0
-573 -574 0
572 573 574 0
c gate 575 571 574 0
571 -575 0
574 -575 0
-571 -574 575 0
c gate 576 94 -190 0
94 -576 0
-190 -576 0
-94 190 576 0
c gate 577 -94 190 0
-94 -577 0
190 -577 0
94 -190 577 0
c gate 578 -576 -577 0
-576 -578 0
-577 -578 0
576 577 578 0
c gate 579 93 189 0
93 -579 0
189 -579 0
-93 -189 579 0
c gate 580 -95 -191 0
-95 -580 0
-191 -580 0
95 191 580 0
c gate 581 -579 -580 0
-579 -581 0
-580 -581 0
579 580 581 0
c gate 582 -578 581 0
-578 -582 0
581 -582 0
578 -581 582 0
c gate 583 575 582 0
575 -583 0
582 -583 0
-575 -582 583 0
c gate 584 90 186 0
90 -584 0
186 -584 0
-90 -186 584 0
c gate 585 89 185 0
89 -585 0
185 -585 0
-89 -185 585 0
c gate 586 -584 -585 0
-584 -586 0
-585 -586 0
584 585 586 0
c gate 587 -89 -185 0
-89 -587 0
-185 -587 0
89 185 587 0
c gate 588 -96 -192 0
-96 -588 0
-192 -588 0
96 192 588 0
c gate 589 -587 -588 0
-587 -589 0
-588 -589 0
587 588 589 0
c gate 590 586 589 0
586 -590 0
589 -590 0
-586 -589 590 0
c gate 591 91 187 0
91 -591 0
187 -591 0
-91 -187 591 0
c gate 592 96 192 0
96 -592 0
192 -592 0
-96 -192 592 0
c gate 593 -591 -592 0
-591 -593 0
-592 -593 0
591 592 593 0
c gate 594 92 188 0
92 -594 0
188 -594 0
-92 -188 594 0
c gate 595 -90 -186 0
-90 -595 0
-186 -595 0
90 186 595 0
c gate 596 -594 -595 0
-594 -596 0
-595 -596 0
594 595 596 0
c gate 597 593 596 0
593 -597 0
596 -597 0
-593 -596 597 0
c gate 598 590 597 0
590 -598 0
597 -598 0
-590 -597 598 0
c gate 599 583 598 0
583 -599 0
598 -599 0
-583 -598 599 0
c gate 600 78 174 0
78 -600 0
174 -600 0
-78 -174 600 0
c gate 601 77 173 0
77 -601 0
173 -601 0
-77 -173 601 0
c gate 602 -600 -601 0
-600 -602 0
-601 -602 0
600 601 602 0
c gate 603 -77 -173 0
-77 -603 0
-173 -603 0
77 173 603 0
c gate 604 -80 -176 0
-80 -604 0
-176 -604 0
80 176 604 0
c gate 605 -603 -604 0
-603 -605 0
-604 -605 0
603 604 605 0
c gate 606 602 605 0
602 -606 0
605 -606 0
-602 -605 606 0
c gate 607 -79 -175 0
-79 -607 0
-175 -607 0
79 175 607 0
c gate 608 -78 -174 0
-78 -608 0
-174 -608 0
78 174 608 0
c gate 609 -607 -608 0
-607 -609 0
-608 -609 0
607 608 609 0
c gate 610 80 176 0
80 -610 0
176 -610 0
-80 -176 610 0
c gate 611 79 175 0
79 -611 0
175 -611 0
-79 -175 611 0
c gate 612 -610 -611 0
-610 -612 0
-611 -612 0
610 611 612 0
c gate 613 609 612 0
609 -613 0
612 -613 0
-609 -612 613 0
c gate 614 606 613 0
606 -614 0
613 -614 0
-606 -613 614 0
c gate 615 76 172 0
76 -615 0
172 -615 0
-76 -172 615 0
c gate 616 -76 -172 0
-76 -616 0
-172 -616 0
76 172 616 0
c gate 617 75 171 0
75 -617 0
171 -617 0
-75 -171 617 0
c gate 618 -616 617 0
-616 -618 0
617 -618 0
616 -617 618 0
c gate 619 -615 -618 0
-615 -619 0
-618 -619 0
615 618 619 0
c gate 620 -75 -171 0
-75 -620 0
-171 -620 0
75 171 620 0
c gate 621 -74 -170 0
-74 -621 0
-170 -621 0
74 170 621 0
c gate 622 -616 -621 0
-616 -622 0
-621 -622 0
616 621 622 0
c gate 623 -620 622 0
-620 -623 0
622 -623 0
620 -622 623 0
c gate 624 73 169 0
73 -624 0
169 -624 0
-73 -169 624 0
c gate 625 74 170 0
74 -625 0
170 -625 0
-74 -170 625 0
c gate 626 -624 -625 0
-624 -626 0
-625 -626 0
624 625 626 0
c gate 627 -73 -169 0
-73 -627 0
-169 -627 0
73 169 627 0
c gate 628 626 -627 0
626 -628 0
-627 -628 0
-626 627 628 0
c gate 629 623 628 0
623 -629 0
628 -629 0
-623 -628 629 0
c gate 630 619 629 0
619 -630 0
629 -630 0
-619 -629 630 0
c gate 631 614 630 0
614 -631 0
630 -631 0
-614 -630 631 0
c gate 632 599 631 0
599 -632 0
631 -632 0
-599 -631 632 0
c gate 633 568 632 0
568 -633 0
632 -633 0
-568 -632 633 0
c gate 634 536 633 0
536 -634 0
633 -634 0
-536 -633 634 0
c gate 635 -514 517 0
-514 -635 0
517 -635 0
514 -517 635 0
c gate 636 529 -635 0
529 -636 0
-635 -636 0
-529 635 636 0
c gate 637 526 -636 0
526 -637 0
-636 -637 0
-526 636 637 0
c gate 638 -522 -530 0
-522 -638 0
-530 -638 0
522 530 638 0
c gate 639 -637 638 0
-637 -639 0
638 -639 0
637 -638 639 0
c gate 640 -531 -627 0
-531 -640 0
-627 -640 0
531 627 640 0
c gate 641 -639 640 0
-639 -641 0
640 -641 0
639 -640 641 0
c gate 642 626 -641 0
626 -642 0
-641 -642 0
-626 641 642 0
c gate 643 623 -642 0
623 -643 0
-642 -643 0
-623 642 643 0
c gate 644 619 -643 0
619 -644 0
-643 -644 0
-619 643 644 0
c gate 645 614 -644 0
614 -645 0
-644 -645 0
-614 644 645 0
c gate 646 -602 609 0
-602 -646 0
609 -646 0
602 -609 646 0
c gate 647 612 -646 0
612 -647 0
-646 -647 0
-612 646 647 0
c gate 648 -604 -647 0
-604 -648 0
-647 -648 0
604 647 648 0
c gate 649 -645 -648 0
-645 -649 0
-648 -649 0
645 648 649 0
c gate 650 568 -649 0
568 -650 0
-649 -650 0
-568 649 650 0
c gate 651 -544 -560 0
-544 -651 0
-560 -651 0
544 560 651 0
c gate 652 -558 651 0
-558 -652 0
651 -652 0
558 -651 652 0
c gate 653 541 -652 0
541 -653 0
-652 -653 0
-541 652 653 0
c gate 654 -559 -653 0
-559 -654 0
-653 -654 0
559 653 654 0
c gate 655 554 -654 0
554 -655 0
-654 -655 0
-554 654 655 0
c gate 656 551 -655 0
551 -656 0
-655 -656 0
-551 655 656 0
c gate 657 547 -656 0
547 -657 0
-656 -657 0
-547 656 657 0
c gate 658 -562 -657 0
-562 -658 0
-657 -658 0
562 657 658 0
c gate 659 -650 -658 0
-650 -659 0
-658 -659 0
650 658 659 0
c gate 660 599 -659 0
599 -660 0
-659 -660 0
-599 659 660 0
c gate 661 -634 660 0
-634 -661 0
660 -661 0
634 -660 661 0
c PO
661 0
